40
    47    99    55     8    49    80    25    85    56    58    82    16    51    25    11    11    48    30    78    81    86    73    22    40    34     7    65     6    88    39     4    99    74    30    16    45    44    92    55    69
     8     5     5     2     5     7     8     3     6     1     6     2     4     7     1     2     8     9     8     8     5     8     4     3     1    10     2     4     1     8     6     8     9     1     5     2     5     3     1     6
  2131  2372  2386  1464  1665  2256   633  2265  2299   664  1505  1065  1060  2075  2130   791   708  1656  1194  2338  1625  2549  1222  1537   634  2421  1959   977   725   843   676  1033  1948  1700  1397  1779  1233   748  1337  1940
